c FILE /home/rafael/Documents/HappySet/MIHS/inputs/happygen/output/graph_d_regular_k4_p0.5_v100_20241127_084036.txt
c SOURCE This is a d-regular graph formed for the happy graph colouring problem.
c DESCRIPTION It was generated using the problem generator of Rhyd Lewis
c
c GRAPH STATS
c Seed                             = 1624714768
c Number of Nodes                  = 100
c Number of colours k              = 4
c Number of pre-assignments        = 50
c Degree of all vertices           = 6
c Density                          = 0.0606061
c 
c The degrees of nodes 1 to 100, respectively, are as follows 
c [6, 6, 6, 6, 6, 6, 6, 6, 6, 6, 6, 6, 6, 6, 6, 6, 6, 6, 6, 6, 6, 6, 6, 6, 6, 6, 
c  6, 6, 6, 6, 6, 6, 6, 6, 6, 6, 6, 6, 6, 6, 6, 6, 6, 6, 6, 6, 6, 6, 6, 6, 6, 
c  6, 6, 6, 6, 6, 6, 6, 6, 6, 6, 6, 6, 6, 6, 6, 6, 6, 6, 6, 6, 6, 6, 6, 6, 6, 
c  6, 6, 6, 6, 6, 6, 6, 6, 6, 6, 6, 6, 6, 6, 6, 6, 6, 6, 6, 6, 6, 6, 6, 6] 
c  
p edge 100 300 4
e 1 34
e 1 47
e 1 65
e 1 81
e 1 92
e 1 98
e 2 5
e 2 7
e 2 10
e 2 51
e 2 76
e 2 93
e 3 26
e 3 28
e 3 35
e 3 60
e 3 79
e 3 96
e 4 5
e 4 16
e 4 36
e 4 90
e 4 97
e 4 99
e 5 45
e 5 65
e 5 77
e 5 88
e 6 26
e 6 46
e 6 70
e 6 75
e 6 80
e 6 94
e 7 43
e 7 58
e 7 61
e 7 82
e 7 96
e 8 21
e 8 24
e 8 25
e 8 29
e 8 45
e 8 56
e 9 35
e 9 37
e 9 39
e 9 59
e 9 84
e 9 87
e 10 31
e 10 59
e 10 64
e 10 95
e 10 99
e 11 20
e 11 40
e 11 54
e 11 58
e 11 64
e 11 66
e 12 15
e 12 38
e 12 40
e 12 56
e 12 65
e 12 95
e 13 18
e 13 42
e 13 53
e 13 69
e 13 90
e 13 93
e 14 21
e 14 29
e 14 37
e 14 44
e 14 83
e 14 94
e 15 19
e 15 41
e 15 42
e 15 72
e 15 85
e 16 28
e 16 49
e 16 71
e 16 77
e 16 91
e 17 36
e 17 63
e 17 65
e 17 66
e 17 70
e 17 93
e 18 49
e 18 67
e 18 71
e 18 80
e 18 94
e 19 42
e 19 43
e 19 47
e 19 57
e 19 92
e 20 49
e 20 53
e 20 73
e 20 87
e 20 94
e 21 28
e 21 34
e 21 78
e 21 94
e 22 29
e 22 59
e 22 68
e 22 72
e 22 83
e 22 86
e 23 44
e 23 57
e 23 61
e 23 67
e 23 91
e 23 97
e 24 52
e 24 57
e 24 63
e 24 68
e 24 97
e 25 57
e 25 64
e 25 69
e 25 72
e 25 99
e 26 33
e 26 70
e 26 79
e 26 90
e 27 36
e 27 43
e 27 62
e 27 63
e 27 69
e 27 81
e 28 47
e 28 76
e 28 93
e 29 34
e 29 62
e 29 92
e 30 45
e 30 66
e 30 75
e 30 84
e 30 95
e 30 98
e 31 41
e 31 65
e 31 70
e 31 74
e 31 92
e 32 43
e 32 46
e 32 82
e 32 86
e 32 92
e 32 95
e 33 51
e 33 68
e 33 79
e 33 87
e 33 89
e 34 54
e 34 55
e 34 62
e 35 74
e 35 78
e 35 90
e 35 96
e 36 50
e 36 55
e 36 77
e 37 40
e 37 83
e 37 84
e 37 97
e 38 71
e 38 82
e 38 85
e 38 89
e 38 99
e 39 40
e 39 51
e 39 75
e 39 81
e 39 93
e 40 44
e 40 83
e 41 48
e 41 73
e 41 74
e 41 98
e 42 68
e 42 83
e 42 85
e 43 48
e 43 95
e 44 57
e 44 68
e 44 80
e 45 67
e 45 78
e 45 100
e 46 62
e 46 66
e 46 69
e 46 71
e 47 63
e 47 75
e 47 91
e 48 53
e 48 61
e 48 85
e 48 86
e 49 55
e 49 88
e 49 90
e 50 54
e 50 61
e 50 73
e 50 87
e 50 97
e 51 60
e 51 64
e 51 71
e 52 54
e 52 56
e 52 58
e 52 84
e 52 91
e 53 77
e 53 84
e 53 92
e 54 88
e 54 89
e 55 78
e 55 88
e 55 94
e 56 66
e 56 79
e 56 98
e 57 60
e 58 70
e 58 89
e 58 98
e 59 76
e 59 78
e 59 98
e 60 76
e 60 81
e 60 89
e 61 66
e 61 72
e 62 86
e 62 100
e 63 65
e 63 96
e 64 78
e 64 81
e 67 74
e 67 86
e 67 96
e 68 86
e 69 73
e 69 80
e 70 73
e 71 99
e 72 77
e 72 90
e 73 89
e 74 85
e 74 97
e 75 82
e 75 100
e 76 87
e 76 95
e 77 80
e 79 80
e 79 91
e 81 100
e 82 88
e 82 100
e 83 99
e 84 87
e 85 96
e 88 93
e 91 100
n 1 1
n 6 1
n 7 4
n 8 1
n 11 2
n 12 4
n 13 1
n 19 1
n 20 2
n 21 1
n 24 1
n 26 1
n 27 1
n 28 1
n 29 1
n 35 1
n 39 3
n 41 4
n 44 1
n 45 1
n 47 1
n 49 2
n 50 1
n 51 3
n 52 1
n 55 2
n 59 2
n 60 3
n 62 1
n 63 1
n 66 2
n 67 1
n 68 1
n 69 1
n 70 1
n 71 3
n 72 4
n 77 4
n 79 1
n 82 4
n 83 3
n 84 1
n 85 2
n 86 1
n 89 3
n 91 1
n 92 1
n 95 4
n 97 1
n 99 3
